
n_res = 6;
rcap = [23, 22, 484, 483, 553, 513];
rtype = [1, 1, 2, 2, 2, 2];
n_tasks = 50;
modes =  [{1, 2, 3, 4, 5, 6}, {7, 8, 9, 10, 11, 12}, {13, 14, 15, 16, 17, 18}, {19, 20, 21, 22, 23, 24}, {25, 26, 27, 28, 29, 30}, {31, 32, 33, 34, 35, 36}, {37, 38, 39, 40, 41, 42}, {43, 44, 45, 46, 47, 48}, {49, 50, 51, 52, 53, 54}, {55, 56, 57, 58, 59, 60}, {61, 62, 63, 64, 65, 66}, {67, 68, 69, 70, 71, 72}, {73, 74, 75, 76, 77, 78}, {79, 80, 81, 82, 83, 84}, {85, 86, 87, 88, 89, 90}, {91, 92, 93, 94, 95, 96}, {97, 98, 99, 100, 101, 102}, {103, 104, 105, 106, 107, 108}, {109, 110, 111, 112, 113, 114}, {115, 116, 117, 118, 119, 120}, {121, 122, 123, 124, 125, 126}, {127, 128, 129, 130, 131, 132}, {133, 134, 135, 136, 137, 138}, {139, 140, 141, 142, 143, 144}, {145, 146, 147, 148, 149, 150}, {151, 152, 153, 154, 155, 156}, {157, 158, 159, 160, 161, 162}, {163, 164, 165, 166, 167, 168}, {169, 170, 171, 172, 173, 174}, {175, 176, 177, 178, 179, 180}, {181, 182, 183, 184, 185, 186}, {187, 188, 189, 190, 191, 192}, {193, 194, 195, 196, 197, 198}, {199, 200, 201, 202, 203, 204}, {205, 206, 207, 208, 209, 210}, {211, 212, 213, 214, 215, 216}, {217, 218, 219, 220, 221, 222}, {223, 224, 225, 226, 227, 228}, {229, 230, 231, 232, 233, 234}, {235, 236, 237, 238, 239, 240}, {241, 242, 243, 244, 245, 246}, {247, 248, 249, 250, 251, 252}, {253, 254, 255, 256, 257, 258}, {259, 260, 261, 262, 263, 264}, {265, 266, 267, 268, 269, 270}, {271, 272, 273, 274, 275, 276}, {277, 278, 279, 280, 281, 282}, {283, 284, 285, 286, 287, 288}, {289, 290, 291, 292, 293, 294}, {295, 296, 297, 298, 299, 300}];
succ =  [{20, 14, 12, 10, 9, 7, 3}, {23, 22, 15, 13, 12, 6}, {24, 23, 22, 21, 19, 17, 16, 15}, {24, 23, 22, 19, 18, 15, 13}, {35, 30, 23, 21, 20, 19, 16}, {30, 21, 10}, {38, 30, 29, 21, 18, 16}, {33, 19, 16, 15}, {38, 35, 30, 17, 16}, {33, 27, 24, 19, 16}, {41, 38, 31, 28, 27, 26, 19}, {50, 49, 42, 37, 36, 33, 31, 28, 25, 24}, {32, 31, 28, 26, 25, 20}, {49, 31, 29, 28, 26, 18}, {50, 49, 38, 37, 36, 35, 32, 31, 30, 29}, {49, 41, 32, 31, 28, 26, 25}, {42, 41, 37, 31, 29, 27}, {50, 48, 46, 41, 40, 39, 37, 34, 32}, {50, 49, 48, 40, 37, 36, 34, 32}, {50, 42, 41, 39, 36, 34, 27}, {47, 42, 39, 37, 33, 27}, {50, 41, 37, 36, 31, 29}, {48, 41, 39, 29, 27}, {46, 41, 40, 39, 35, 34}, {48, 46, 44, 40, 34}, {50, 44, 39, 36}, {49, 46, 45, 44, 40}, {48, 46, 45, 44, 39}, {47, 45, 44, 40}, {47, 45, 41, 39}, {48, 44, 39}, {45, 43, 42}, {48, 44, 41}, {47, 45, 43}, {48, 47, 44}, {46, 45}, {44, 43}, {44, 43}, {43}, {43}, {43}, {44}, {}, {}, {}, {}, {}, {}, {}, {}];
n_opt = 300;
dur = [1, 4, 10, 14, 15, 19, 9, 11, 13, 14, 15, 18, 4, 5, 11, 17, 18, 19, 3, 8, 13, 17, 18, 19, 5, 11, 12, 15, 19, 20, 5, 6, 7, 13, 19, 20, 2, 5, 9, 15, 17, 18, 3, 6, 9, 14, 16, 18, 3, 5, 9, 12, 15, 19, 5, 7, 15, 16, 17, 20, 4, 7, 10, 15, 16, 17, 2, 3, 4, 11, 17, 20, 7, 12, 13, 14, 18, 20, 4, 5, 6, 10, 12, 15, 6, 8, 9, 10, 12, 15, 1, 2, 7, 9, 10, 12, 9, 10, 11, 15, 19, 20, 4, 6, 9, 11, 16, 19, 4, 8, 9, 10, 14, 16, 2, 5, 7, 10, 11, 12, 7, 9, 10, 11, 12, 15, 4, 5, 15, 18, 19, 20, 4, 5, 6, 12, 14, 19, 8, 9, 10, 17, 18, 19, 2, 3, 4, 5, 12, 18, 2, 3, 6, 9, 14, 17, 1, 3, 5, 11, 12, 20, 3, 7, 9, 10, 11, 12, 1, 6, 7, 14, 18, 19, 2, 3, 5, 9, 10, 11, 2, 9, 14, 15, 16, 17, 9, 12, 14, 16, 17, 18, 8, 12, 13, 14, 15, 19, 2, 7, 8, 9, 10, 18, 1, 6, 14, 16, 17, 20, 7, 12, 13, 14, 15, 17, 2, 3, 4, 5, 9, 14, 1, 5, 6, 12, 16, 18, 7, 9, 11, 13, 15, 19, 1, 5, 8, 9, 13, 20, 3, 5, 13, 14, 16, 20, 1, 11, 13, 16, 17, 18, 1, 2, 4, 5, 9, 17, 4, 5, 11, 15, 16, 18, 1, 2, 4, 11, 13, 15, 5, 9, 10, 13, 15, 18, 2, 4, 11, 13, 14, 20, 1, 2, 4, 6, 9, 15, 3, 5, 12, 14, 16, 17, 5, 7, 9, 10, 11, 12];
rreq = [|1, 1, 1, 1, 1, 1, 5, 4, 4, 4, 4, 4, 3, 3, 3, 2, 2, 2, 5, 4, 4, 3, 2, 2, 4, 3, 3, 2, 1, 1, 3, 2, 2, 2, 2, 2, 3, 3, 3, 2, 2, 2, 1, 1, 1, 1, 1, 1, 3, 3, 3, 3, 3, 3, 3, 2, 2, 1, 1, 1, 4, 3, 3, 2, 2, 1, 3, 2, 2, 2, 2, 2, 5, 4, 3, 2, 1, 1, 2, 2, 2, 2, 2, 2, 2, 1, 1, 1, 1, 1, 3, 3, 3, 2, 2, 2, 2, 1, 1, 1, 1, 1, 4, 4, 4, 4, 4, 4, 3, 3, 3, 3, 3, 3, 3, 2, 2, 2, 1, 1, 4, 4, 4, 4, 4, 4, 4, 4, 4, 4, 4, 4, 4, 3, 2, 2, 1, 1, 3, 3, 2, 2, 1, 1, 4, 3, 3, 3, 3, 3, 3, 3, 3, 3, 3, 3, 4, 4, 4, 4, 4, 4, 5, 4, 4, 4, 3, 3, 5, 5, 5, 5, 5, 5, 5, 3, 3, 2, 1, 1, 3, 2, 2, 1, 1, 1, 4, 4, 4, 4, 4, 4, 5, 4, 4, 4, 4, 4, 5, 4, 4, 3, 3, 2, 2, 2, 2, 2, 2, 2, 3, 3, 3, 3, 3, 3, 4, 4, 4, 4, 4, 4, 4, 4, 3, 3, 3, 2, 3, 3, 3, 3, 3, 3, 1, 1, 1, 1, 1, 1, 4, 4, 4, 3, 3, 3, 4, 4, 4, 4, 4, 4, 2, 2, 2, 2, 1, 1, 5, 4, 4, 4, 3, 3, 2, 2, 2, 2, 2, 2, 5, 5, 5, 5, 5, 5, 4, 3, 3, 3, 3, 3, 3, 2, 2, 2, 1, 1, 3, 3, 3, 3, 3, 3, 3, 3, 2, 2, 1, 1
 |3, 3, 3, 3, 3, 3, 1, 1, 1, 1, 1, 1, 3, 3, 3, 2, 1, 1, 4, 4, 4, 4, 4, 4, 3, 2, 2, 2, 2, 2, 5, 4, 4, 3, 3, 3, 5, 4, 4, 3, 3, 3, 1, 1, 1, 1, 1, 1, 4, 4, 4, 4, 4, 4, 5, 5, 5, 5, 5, 5, 4, 4, 3, 2, 2, 1, 2, 2, 2, 2, 2, 2, 5, 4, 3, 3, 3, 2, 3, 3, 3, 3, 2, 2, 4, 4, 4, 4, 4, 4, 4, 4, 4, 3, 3, 3, 2, 2, 2, 2, 2, 2, 3, 3, 3, 3, 3, 3, 3, 2, 2, 1, 1, 1, 3, 3, 2, 2, 1, 1, 5, 4, 4, 4, 4, 4, 1, 1, 1, 1, 1, 1, 5, 5, 5, 5, 5, 5, 3, 3, 2, 2, 1, 1, 3, 2, 2, 2, 2, 2, 5, 4, 4, 3, 3, 2, 4, 4, 4, 4, 4, 4, 3, 3, 3, 3, 3, 3, 4, 3, 3, 2, 1, 1, 5, 4, 4, 4, 4, 4, 4, 3, 3, 3, 3, 3, 1, 1, 1, 1, 1, 1, 1, 1, 1, 1, 1, 1, 4, 3, 2, 2, 2, 1, 5, 4, 3, 3, 2, 2, 2, 2, 2, 2, 2, 2, 1, 1, 1, 1, 1, 1, 1, 1, 1, 1, 1, 1, 4, 3, 3, 3, 3, 3, 2, 2, 2, 2, 1, 1, 3, 3, 3, 3, 3, 3, 2, 1, 1, 1, 1, 1, 3, 3, 2, 2, 1, 1, 3, 3, 3, 3, 3, 3, 3, 3, 3, 2, 2, 2, 2, 2, 2, 2, 2, 2, 4, 3, 3, 2, 2, 2, 2, 2, 2, 2, 2, 2, 4, 3, 3, 3, 3, 3, 4, 4, 4, 3, 3, 3
 |19, 18, 16, 14, 12, 11, 10, 8, 6, 6, 2, 1, 14, 13, 12, 12, 11, 9, 13, 13, 10, 8, 5, 3, 19, 19, 19, 19, 19, 19, 20, 19, 19, 19, 18, 18, 17, 14, 14, 8, 5, 5, 17, 16, 15, 13, 11, 10, 12, 11, 9, 7, 7, 5, 6, 5, 4, 4, 3, 3, 15, 15, 15, 14, 14, 13, 10, 9, 7, 7, 4, 2, 19, 18, 17, 17, 16, 16, 15, 13, 13, 12, 11, 11, 9, 9, 6, 4, 4, 1, 2, 2, 2, 1, 1, 1, 5, 3, 3, 3, 2, 1, 14, 12, 12, 10, 10, 9, 16, 15, 15, 15, 14, 14, 5, 5, 5, 5, 5, 5, 18, 16, 16, 12, 11, 10, 13, 13, 13, 13, 13, 13, 11, 9, 8, 7, 6, 4, 6, 5, 4, 3, 2, 2, 18, 16, 15, 15, 14, 13, 10, 10, 6, 6, 3, 1, 8, 7, 6, 4, 3, 2, 1, 1, 1, 1, 1, 1, 15, 14, 14, 14, 14, 14, 18, 14, 11, 8, 7, 5, 8, 8, 6, 6, 4, 3, 8, 7, 6, 4, 3, 2, 16, 14, 13, 10, 8, 7, 15, 15, 12, 10, 10, 8, 13, 12, 10, 8, 5, 4, 8, 7, 7, 5, 5, 4, 16, 15, 10, 7, 7, 4, 18, 16, 14, 13, 11, 9, 2, 2, 2, 2, 2, 2, 17, 17, 17, 17, 17, 17, 5, 4, 3, 3, 2, 2, 17, 15, 14, 12, 11, 11, 13, 13, 12, 11, 9, 9, 15, 13, 9, 8, 4, 3, 15, 11, 11, 6, 4, 3, 20, 17, 16, 15, 14, 11, 4, 4, 4, 3, 3, 3, 13, 12, 12, 11, 11, 11, 11, 11, 11, 11, 11, 11, 7, 7, 7, 6, 6, 6
 |7, 7, 7, 7, 7, 7, 14, 12, 10, 9, 8, 8, 8, 8, 8, 7, 7, 7, 19, 15, 15, 13, 11, 10, 16, 14, 13, 12, 12, 11, 9, 9, 8, 7, 6, 5, 19, 19, 19, 18, 18, 17, 15, 13, 11, 10, 7, 6, 6, 6, 6, 5, 5, 5, 16, 15, 15, 15, 14, 14, 12, 11, 8, 5, 5, 1, 8, 7, 7, 7, 6, 6, 16, 13, 12, 11, 10, 9, 8, 7, 7, 7, 7, 7, 16, 13, 12, 10, 9, 9, 6, 6, 5, 3, 3, 2, 19, 17, 13, 12, 10, 7, 10, 9, 8, 6, 5, 4, 16, 14, 12, 9, 7, 5, 11, 8, 8, 6, 5, 4, 18, 17, 15, 11, 10, 9, 14, 14, 13, 10, 10, 9, 11, 9, 8, 5, 4, 2, 17, 13, 12, 9, 5, 2, 18, 18, 18, 18, 18, 18, 6, 6, 5, 3, 2, 2, 10, 9, 9, 8, 8, 7, 12, 9, 7, 7, 5, 2, 18, 17, 17, 16, 15, 15, 15, 14, 13, 12, 11, 10, 1, 1, 1, 1, 1, 1, 5, 4, 4, 4, 4, 4, 12, 12, 10, 9, 9, 8, 17, 15, 15, 13, 12, 11, 9, 7, 6, 4, 4, 2, 9, 8, 8, 7, 6, 5, 14, 11, 10, 8, 5, 4, 3, 2, 2, 2, 1, 1, 4, 3, 3, 3, 3, 3, 8, 8, 8, 8, 8, 8, 18, 18, 17, 16, 15, 14, 19, 16, 12, 9, 9, 6, 10, 7, 5, 4, 2, 2, 6, 4, 3, 2, 1, 1, 9, 8, 7, 7, 6, 5, 12, 12, 12, 12, 11, 11, 8, 8, 8, 8, 8, 8, 19, 18, 18, 18, 17, 16, 19, 19, 19, 18, 18, 18, 17, 16, 14, 12, 12, 9
 |12, 10, 9, 8, 7, 7, 14, 11, 9, 8, 5, 2, 12, 10, 9, 7, 5, 1, 13, 12, 11, 11, 8, 8, 11, 9, 8, 7, 4, 3, 10, 10, 10, 9, 9, 8, 17, 17, 14, 13, 12, 11, 18, 16, 15, 13, 10, 9, 18, 15, 13, 11, 8, 8, 16, 14, 13, 10, 10, 7, 16, 16, 16, 16, 16, 16, 6, 6, 6, 5, 5, 5, 14, 12, 11, 10, 8, 8, 19, 17, 14, 12, 11, 9, 15, 14, 12, 11, 11, 9, 9, 8, 8, 7, 7, 6, 11, 11, 9, 7, 5, 5, 15, 15, 15, 15, 15, 15, 18, 16, 11, 9, 7, 6, 11, 9, 8, 7, 3, 3, 10, 10, 8, 8, 7, 6, 10, 9, 9, 9, 9, 9, 20, 19, 18, 16, 16, 15, 14, 12, 12, 8, 7, 6, 16, 14, 13, 12, 9, 9, 16, 13, 13, 11, 10, 7, 17, 17, 17, 17, 17, 17, 15, 13, 12, 12, 10, 10, 12, 11, 11, 11, 11, 11, 12, 11, 11, 8, 7, 6, 20, 19, 19, 18, 18, 17, 4, 3, 3, 2, 2, 2, 16, 15, 15, 14, 14, 13, 20, 17, 17, 16, 13, 12, 8, 8, 8, 8, 7, 7, 13, 12, 8, 6, 4, 4, 8, 8, 8, 8, 8, 8, 18, 16, 12, 9, 7, 6, 14, 13, 13, 13, 13, 13, 15, 12, 10, 9, 6, 4, 18, 16, 16, 15, 14, 14, 13, 10, 9, 8, 5, 3, 14, 13, 13, 11, 11, 10, 14, 14, 14, 13, 13, 13, 7, 6, 6, 3, 3, 2, 12, 11, 11, 9, 8, 8, 16, 15, 15, 12, 12, 11, 18, 15, 15, 11, 10, 8, 13, 12, 9, 7, 6, 3, 16, 15, 14, 14, 13, 12
 |19, 17, 13, 13, 9, 7, 18, 18, 16, 15, 15, 13, 18, 17, 15, 11, 9, 8, 10, 10, 10, 10, 10, 10, 7, 6, 6, 6, 5, 5, 10, 9, 9, 9, 7, 7, 9, 8, 8, 8, 8, 8, 4, 4, 4, 3, 3, 3, 12, 10, 9, 7, 4, 1, 19, 16, 12, 9, 6, 3, 19, 15, 14, 9, 6, 6, 14, 14, 14, 13, 12, 12, 20, 16, 14, 14, 11, 8, 13, 13, 11, 9, 8, 7, 18, 18, 16, 15, 15, 14, 20, 16, 14, 12, 9, 8, 20, 18, 17, 17, 16, 14, 6, 5, 3, 2, 1, 1, 5, 5, 5, 5, 5, 5, 8, 6, 6, 4, 3, 3, 13, 11, 10, 9, 8, 6, 4, 4, 4, 4, 3, 3, 19, 16, 15, 12, 12, 10, 10, 10, 8, 7, 7, 6, 8, 7, 7, 7, 6, 6, 20, 14, 10, 10, 4, 4, 18, 18, 17, 17, 16, 15, 19, 13, 11, 7, 4, 4, 15, 16, 15, 15, 15, 14, 12, 11, 10, 10, 9, 7, 8, 7, 5, 4, 4, 3, 20, 19, 19, 19, 19, 19, 5, 4, 4, 4, 2, 2, 8, 8, 7, 7, 6, 6, 16, 14, 10, 7, 5, 3, 18, 15, 13, 12, 10, 7, 20, 19, 19, 19, 18, 18, 10, 8, 7, 6, 5, 5, 16, 14, 13, 8, 6, 4, 6, 6, 6, 6, 6, 6, 19, 16, 12, 9, 5, 3, 1, 1, 1, 1, 1, 1, 19, 18, 17, 17, 17, 16, 8, 8, 6, 4, 4, 2, 16, 16, 16, 15, 15, 15, 17, 15, 13, 12, 9, 7, 10, 9, 8, 7, 6, 6, 9, 9, 8, 8, 8, 8, 18, 15, 13, 12, 8, 8, 12, 9, 8, 8, 7, 5|];